
# PYTHONPATH must include directory above plugin directory.
#     Define either externally or here, then import plugin.
sys.path.insert(0, './..')
import cctransort

molecule {
1 2
O
H 1 R
H 1 R 2 A

R = .9
A = 104.5
}

set {
  basis sto-3g
  freeze_core true
  reference rohf
  wfn = "CCSD_T"
  r_convergence 13
  e_convergence 13
  d_convergence 13
}

#energy('cctransort')
#psi4.ccenergy()
energy('ccsd(t)')

