
# PYTHONPATH must include directory above plugin directory.
#     Define either externally or here, then import plugin.
sys.path.insert(0, './..')
import cctransort

molecule {
0 1
O
H 1 R
H 1 R 2 A

R = .9
A = 104.5
}

set {
  basis sto-3g
  freeze_core true
  reference rhf
}

set cctransort {
  print 8
}

energy('cctransort')
#energy('ccsd')

